Traveling Salesman Problem/TSP_generados/Aleatorio1620391160_14.tsp
NAME: Aleatorio1620391160_14.tsp
COMMENT: Randomly generated scenario
TYPE: TSP
DIMENSION: 14
EDGE_WEIGHT_TYPE: ATT
NODE_COORD_SECTION
1 47.25 28.19
2 11.93 7.54
3 21.35 36.24
4 0.84 1.24
5 30.63 20.35
6 42.55 11.38
7 19.96 25.16
8 26.36 1.24
9 3.14 29.99
10 0.59 31.99
11 28.64 43.72
12 40.16 1.48
13 2.46 49.19
14 45.14 48.65
