Traveling Salesman Problem/TSP_generados/Aleatorio1620391160_14.opt.tour
NAME: Aleatorio1620391160_14.opt.tour
COMMENT: Optimal solution for Aleatorio1620391160_14 (223.26531683939007)
TYPE: TOUR
DIMENSION: 14
TOUR_SECTION
1 14 11 3 13 10 9 7 5 2 4 8 12 6
-1
EOF
